2
8
20
1 1.3 1.55 1.75 2.1
9 16 26 6 47 35 33 44 13 22 18 11 7 34 9 26 46 38 9 15 15 24 42 20 19 22 35 14 10 12 14 47 38 25 10 16 23 19 45 12 25 46 15 22 14 27 18 42 22 25 41 7 44 34 14 22 8 49 24 9 17 49 34 7 42 47 39 38 8 15 40 26 34 16 33 29 47 19 31 28 25 25 21 17 8 37 19 5 30 19 7 48 21 42 23 15 5 20 19 48 6 34 40 35 35 35 47 17 34 8 32 17 47 49 35 10 29 21 7 5 45 28 7 45 46 45 49 12 19 46 17 16 32 34 44 47 13 30 11 46 19 30 22 19 12 24 34 11 29 42 22 25 23 18 30 38 16 36 48 18 